/*********************************************
 * OPL 22.1.0.0 Data
 * Author: User
 * Creation Date: Nov 25, 2023 at 6:25:39 PM
 *********************************************/
nOrders=4;
nSlots=12;
p=[18.0,21.0,308.0,6.0];
l=[2,3,10,2];
c=[40.0,15.0,40.0,40.0];
mindi=[4,3,7,3];
maxdi=[4,7,12,4];
maxsur=40;